(set-logic QF_NRA_ODE)
(declare-fun temperature () Real [0, 100])
(declare-fun u () Real [20, 100])
(declare-fun lt () Real [0.000000, 0.3])
(declare-fun gt () Real [0.000000, 4])
(declare-fun ._0 () Int [-100, 100] )
(declare-fun command_to_heater.0_0 () Int [-100, 100] )
(declare-fun chatter_detect.0_0 () Int [-100, 100] )
(declare-fun inc_0 () Int [-100, 100] )
(declare-fun command_to_heater.1_0 () Int [-100, 100] )
(declare-fun off_counter.0_0 () Int [-100, 100] )
(declare-fun on_counter.0_0 () Int [-100, 100] )
(declare-fun spec.select85_0 () Real [-100, 100] )
(declare-fun uVal.0_0 () Real [-100, 100] )
(declare-fun state_temperature_0 () Real [0, 100] )
(declare-fun chat_detect_0 () Int [0, 10] )
(declare-fun previous_cmd_to_heater_0 () Int [0, 5] )
(declare-fun on_count_0 () Int [0, 25] )
(declare-fun off_count_0 () Int [0, 25] )
(declare-fun cmd_to_heater_0 () Int [0, 5] )
(declare-fun next_u_0 () Real [20, 100] )
(declare-fun temperature_0_0 () Real [0, 100])
(declare-fun temperature_0_t () Real [0, 100])
(declare-fun u_0_0 () Real [20, 100])
(declare-fun u_0_t () Real [20, 100])
(declare-fun lt_0_0 () Real [0.000000, 0.3])
(declare-fun lt_0_t () Real [0.000000, 0.3])
(declare-fun gt_0_0 () Real [0.000000, 4])
(declare-fun gt_0_t () Real [0.000000, 4])
(declare-fun time_0 () Real [0.000000, 0.1])
(declare-fun mode_0 () Real [1.000000, 1.000000])
(declare-fun Noise__-1 () Real [0, 0])
(declare-fun ._1 () Int [-100, 100] )
(declare-fun command_to_heater.0_1 () Int [-100, 100] )
(declare-fun chatter_detect.0_1 () Int [-100, 100] )
(declare-fun inc_1 () Int [-100, 100] )
(declare-fun command_to_heater.1_1 () Int [-100, 100] )
(declare-fun off_counter.0_1 () Int [-100, 100] )
(declare-fun on_counter.0_1 () Int [-100, 100] )
(declare-fun spec.select85_1 () Real [-100, 100] )
(declare-fun uVal.0_1 () Real [-100, 100] )
(declare-fun state_temperature_1 () Real [0, 100] )
(declare-fun chat_detect_1 () Int [0, 10] )
(declare-fun previous_cmd_to_heater_1 () Int [0, 5] )
(declare-fun on_count_1 () Int [0, 25] )
(declare-fun off_count_1 () Int [0, 25] )
(declare-fun cmd_to_heater_1 () Int [0, 5] )
(declare-fun next_u_1 () Real [20, 100] )
(declare-fun temperature_1_0 () Real [0, 100])
(declare-fun temperature_1_t () Real [0, 100])
(declare-fun u_1_0 () Real [20, 100])
(declare-fun u_1_t () Real [20, 100])
(declare-fun lt_1_0 () Real [0.000000, 0.3])
(declare-fun lt_1_t () Real [0.000000, 0.3])
(declare-fun gt_1_0 () Real [0.000000, 4])
(declare-fun gt_1_t () Real [0.000000, 4])
(declare-fun time_1 () Real [0.000000, 0.3])
(declare-fun mode_1 () Real [1.000000, 1.000000])
(define-ode flow_1 ((= d/dt[gt] 1) (= d/dt[lt] 1) (= d/dt[temperature] (-(* 0.5 u)(* 0.5 temperature))) (= d/dt[u] 0)))
(assert (and (= lt_0_0 0) (= gt_0_0 0) (= u_0_0 20 )(<= temperature_0_0 75 )(>= temperature_0_0 55 )(= mode_0 1) (= chat_detect_0 0 ) (= previous_cmd_to_heater_0 0 ) (= on_count_0 0 ) (= off_count_0 0 ) (= cmd_to_heater_0 0 )  
 (= lt_0_t (+ lt_0_0 (* 1 0.1))) (= gt_0_t (+ gt_0_0 (* 1 0.1))) (= u_0_t (+ u_0_0 (* 0 0.1))) 
 (= [gt_0_t lt_0_t temperature_0_t u_0_t ] (integral 0. time_0 [gt_0_0 lt_0_0 temperature_0_0 u_0_0 ] flow_1))  
 (= mode_1 1) (= lt_0_t 0.1) (= gt_1_0 gt_0_t) (= lt_1_0 0)  
 (= temperature_1_0 temperature_0_t)(= state_temperature_0 temperature_0_t )  
 (=> (not (and (>= state_temperature_0 66 ) (< state_temperature_0 70 ) ) ) 
(and 
(=> (< state_temperature_0 70 ) 
(and 
(ite (< state_temperature_0 66 ) (= ._0 2 )(= ._0 previous_cmd_to_heater_0 ) ) 
) 
) 
) 
) 
(=> (and (>= state_temperature_0 66 ) (< state_temperature_0 70 ) ) (= command_to_heater.0_0 3 )) 
(=> (not (< state_temperature_0 70 ) ) (= command_to_heater.0_0 1 )) 
(=> (< state_temperature_0 70 ) (= command_to_heater.0_0 ._0 )) 
(ite (or (> on_count_0 4 ) (> off_count_0 4 ) ) (= chatter_detect.0_0 0 )(= chatter_detect.0_0 chat_detect_0 ) ) 
(ite (not (= command_to_heater.0_0 previous_cmd_to_heater_0 )) (= inc_0 1 ) (= inc_0 0 )) 
(ite (> (+ chatter_detect.0_0 inc_0 ) 4 ) (= command_to_heater.1_0 previous_cmd_to_heater_0 )(= command_to_heater.1_0 command_to_heater.0_0 ) ) 
(ite (= command_to_heater.1_0 1 ) (= off_counter.0_0 (+ off_count_0 1 ) )(= off_counter.0_0 0 ) ) 
(ite (= command_to_heater.1_0 1 ) (= on_counter.0_0 0 )(= on_counter.0_0 (+ on_count_0 1 ) ) ) 
(ite (= command_to_heater.1_0 3 ) (= spec.select85_0 70 )(= spec.select85_0 100 ) ) 
(ite (= command_to_heater.1_0 1 ) (= uVal.0_0 20 )(= uVal.0_0 spec.select85_0 ) ) 
(= next_u_1 uVal.0_0 ) 
(= cmd_to_heater_1 command_to_heater.1_0 ) 
(= chat_detect_1 (+ chatter_detect.0_0 inc_0 ) ) 
(= previous_cmd_to_heater_1 command_to_heater.1_0 ) 
(= on_count_1 on_counter.0_0 ) 
(= off_count_1 off_counter.0_0 ) 
  
 (= next_u_1 u_1_0 )  
 (= lt_1_t (+ lt_1_0 (* 1 time_1 ))) (= gt_1_t (+ gt_1_0 (* 1 time_1 ))) (= u_1_t (+ u_1_0 (* 0 time_1 ))) 
 (= [gt_1_t lt_1_t temperature_1_t u_1_t ] (integral 0. time_1 [gt_1_0 lt_1_0 temperature_1_0 u_1_0 ] flow_1))  
 (forall_t 1 [0 time_1] (<= lt_1_t 0.3))   
 (<= lt_1_t 0.3) (<= lt_1_0 0.3) (= mode_1 1)  
 (< temperature_1_t 52  ) ))
 (check-sat)
(exit)